c FILE /home/rafael/Documents/HappySet/MIHS/inputs/happygen/output/graph_scale_free_k3_p0.4_v100_20241127_083814.txt
c SOURCE This is a scale-free graph formed for the happy graph colouring problem.
c DESCRIPTION It was generated using the problem generator of Rhyd Lewis
c
c GRAPH STATS
c Seed                             = 586581782
c Number of Nodes                  = 100
c Number of colours k              = 3
c Number of pre-assignments        = 40
c Number of links per new node     = 5
c Density                          = 0.0979798
c 
c The degrees of nodes 1 to 100, respectively, are as follows 
c [45, 38, 25, 24, 24, 23, 22, 21, 21, 20, 18, 17, 16, 16, 16, 16, 16, 15, 15, 15, 14, 14, 14, 13, 11, 11, 
c  11, 10, 10, 9, 9, 9, 8, 8, 8, 8, 8, 8, 8, 8, 8, 7, 7, 7, 7, 7, 7, 7, 7, 7, 7, 
c  6, 6, 6, 6, 6, 6, 6, 6, 6, 6, 6, 6, 6, 6, 6, 6, 6, 6, 6, 6, 6, 6, 6, 6, 6, 
c  5, 5, 5, 5, 5, 5, 5, 5, 5, 5, 5, 5, 5, 5, 5, 5, 5, 5, 5, 5, 5, 5, 5, 5] 
c  
p edge 100 485 3
e 1 2
e 1 3
e 1 4
e 1 5
e 1 6
e 1 7
e 1 8
e 1 9
e 1 11
e 1 13
e 1 14
e 1 15
e 1 16
e 1 17
e 1 20
e 1 21
e 1 23
e 1 25
e 1 26
e 1 28
e 1 29
e 1 31
e 1 33
e 1 36
e 1 40
e 1 46
e 1 47
e 1 48
e 1 50
e 1 51
e 1 53
e 1 54
e 1 55
e 1 57
e 1 59
e 1 61
e 1 63
e 1 69
e 1 71
e 1 79
e 1 80
e 1 91
e 1 92
e 1 93
e 1 99
e 2 3
e 2 4
e 2 5
e 2 6
e 2 8
e 2 9
e 2 11
e 2 13
e 2 14
e 2 15
e 2 20
e 2 23
e 2 24
e 2 25
e 2 27
e 2 30
e 2 31
e 2 38
e 2 42
e 2 45
e 2 50
e 2 53
e 2 56
e 2 62
e 2 66
e 2 67
e 2 69
e 2 70
e 2 77
e 2 81
e 2 85
e 2 88
e 2 92
e 2 93
e 2 95
e 2 96
e 2 98
e 3 4
e 3 5
e 3 6
e 3 10
e 3 14
e 3 16
e 3 26
e 3 28
e 3 31
e 3 34
e 3 35
e 3 36
e 3 39
e 3 52
e 3 55
e 3 63
e 3 72
e 3 74
e 3 76
e 3 77
e 3 78
e 3 84
e 3 89
e 4 5
e 4 6
e 4 8
e 4 11
e 4 13
e 4 18
e 4 21
e 4 22
e 4 25
e 4 27
e 4 30
e 4 43
e 4 62
e 4 68
e 4 76
e 4 83
e 4 85
e 4 88
e 4 90
e 4 91
e 4 94
e 5 8
e 5 9
e 5 11
e 5 15
e 5 21
e 5 22
e 5 24
e 5 26
e 5 34
e 5 38
e 5 46
e 5 47
e 5 53
e 5 58
e 5 73
e 5 75
e 5 77
e 5 82
e 5 97
e 5 100
e 6 9
e 6 13
e 6 17
e 6 19
e 6 21
e 6 22
e 6 25
e 6 29
e 6 34
e 6 40
e 6 41
e 6 46
e 6 48
e 6 62
e 6 68
e 6 81
e 6 83
e 6 86
e 6 100
e 7 10
e 7 13
e 7 14
e 7 15
e 7 16
e 7 17
e 7 20
e 7 21
e 7 22
e 7 23
e 7 51
e 7 52
e 7 59
e 7 62
e 7 63
e 7 65
e 7 72
e 7 78
e 7 82
e 7 94
e 7 97
e 8 9
e 8 10
e 8 11
e 8 12
e 8 14
e 8 18
e 8 19
e 8 25
e 8 36
e 8 37
e 8 46
e 8 52
e 8 82
e 8 87
e 8 92
e 8 95
e 8 99
e 9 11
e 9 12
e 9 16
e 9 24
e 9 26
e 9 27
e 9 39
e 9 43
e 9 47
e 9 49
e 9 58
e 9 64
e 9 68
e 9 73
e 9 75
e 9 78
e 10 11
e 10 19
e 10 29
e 10 31
e 10 33
e 10 34
e 10 39
e 10 49
e 10 53
e 10 60
e 10 62
e 10 67
e 10 72
e 10 85
e 10 88
e 10 96
e 10 98
e 11 12
e 11 21
e 11 25
e 11 27
e 11 32
e 11 45
e 11 60
e 11 71
e 11 84
e 11 88
e 11 97
e 12 17
e 12 20
e 12 29
e 12 32
e 12 33
e 12 35
e 12 37
e 12 49
e 12 51
e 12 57
e 12 58
e 12 59
e 12 66
e 12 80
e 13 18
e 13 22
e 13 24
e 13 25
e 13 26
e 13 42
e 13 59
e 13 61
e 13 69
e 13 70
e 13 99
e 14 15
e 14 18
e 14 19
e 14 24
e 14 25
e 14 29
e 14 40
e 14 51
e 14 52
e 14 54
e 14 56
e 15 16
e 15 20
e 15 21
e 15 23
e 15 47
e 15 54
e 15 57
e 15 68
e 15 83
e 15 91
e 15 96
e 16 28
e 16 30
e 16 44
e 16 48
e 16 53
e 16 70
e 16 71
e 16 79
e 16 80
e 16 91
e 16 95
e 17 19
e 17 22
e 17 32
e 17 43
e 17 57
e 17 59
e 17 64
e 17 74
e 17 78
e 17 84
e 17 85
e 17 97
e 18 19
e 18 20
e 18 26
e 18 27
e 18 41
e 18 63
e 18 69
e 18 75
e 18 82
e 18 84
e 18 87
e 19 21
e 19 46
e 19 50
e 19 52
e 19 55
e 19 58
e 19 66
e 19 77
e 19 80
e 20 30
e 20 35
e 20 39
e 20 41
e 20 44
e 20 55
e 20 56
e 20 83
e 20 99
e 21 33
e 21 49
e 21 54
e 21 75
e 21 89
e 21 93
e 22 23
e 22 42
e 22 44
e 22 45
e 22 56
e 22 81
e 22 89
e 22 100
e 23 28
e 23 32
e 23 41
e 23 65
e 23 77
e 23 92
e 23 96
e 23 98
e 23 100
e 24 31
e 24 36
e 24 38
e 24 43
e 24 54
e 24 64
e 24 67
e 24 73
e 25 32
e 25 61
e 25 87
e 26 28
e 26 30
e 26 34
e 26 35
e 26 61
e 27 33
e 27 43
e 27 55
e 27 57
e 27 73
e 27 99
e 28 35
e 28 44
e 28 73
e 28 78
e 28 95
e 29 36
e 29 37
e 29 42
e 29 64
e 29 90
e 30 66
e 30 74
e 30 76
e 30 79
e 31 42
e 31 48
e 31 69
e 31 71
e 32 44
e 32 79
e 32 85
e 32 86
e 33 37
e 33 41
e 33 92
e 34 38
e 34 47
e 34 89
e 35 45
e 35 81
e 35 91
e 36 38
e 36 45
e 36 64
e 37 43
e 37 75
e 37 79
e 37 94
e 38 40
e 38 48
e 38 83
e 39 40
e 39 45
e 39 60
e 39 66
e 40 51
e 40 71
e 40 82
e 41 65
e 41 70
e 41 93
e 42 80
e 42 88
e 43 65
e 44 50
e 44 90
e 45 70
e 46 76
e 46 96
e 47 58
e 47 81
e 48 61
e 48 98
e 49 54
e 49 90
e 49 98
e 50 55
e 50 72
e 50 100
e 51 65
e 51 86
e 52 60
e 53 56
e 56 93
e 57 90
e 58 60
e 59 89
e 60 63
e 61 68
e 62 67
e 63 67
e 64 74
e 65 84
e 66 94
e 67 86
e 68 95
e 69 74
e 70 86
e 71 72
e 72 87
e 73 76
e 74 97
e 75 87
e 76 94
n 9 2
n 14 1
n 20 3
n 21 3
n 26 2
n 28 2
n 29 1
n 32 1
n 36 1
n 37 1
n 41 3
n 45 1
n 46 1
n 48 2
n 51 1
n 52 1
n 55 3
n 59 3
n 60 1
n 61 2
n 62 2
n 69 3
n 71 1
n 72 1
n 74 3
n 76 1
n 79 1
n 81 3
n 82 3
n 84 2
n 86 1
n 87 1
n 88 2
n 89 3
n 91 2
n 94 1
n 96 1
n 98 2
n 99 3
n 100 3
